master.mps
NAME          master
ROWS
 E  R0001
 E  R0002
 E  R0003
 E  R0004
 E  R0005
 G  R0006
 G  R0007
 L  R0008
 L  R0009
 N  R0010
COLUMNS
    C0001     R0002     -1
    C0002     R0004     -1
    C0003     R0001     1
    C0003     R0002     1.489135E-06
    C0003     R0003     0.0211996894
    C0003     R0004     -2.23362E-06
    C0003     R0005     0.1060081263
    C0003     R0006     1.359654E-09
    C0003     R0007     2.205
    C0003     R0008     1.359654E-09
    C0003     R0009     2.205
    C0004     R0001     1
    C0004     R0002     1.489135E-06
    C0004     R0003     0.0211996894
    C0004     R0004     -2.23362E-06
    C0004     R0005     0.1060081263
    C0004     R0006     1.359654E-09
    C0004     R0007     2.205
    C0004     R0008     1.359654E-09
    C0004     R0009     2.205
    C0005     R0001     1
    C0005     R0002     1.489135E-06
    C0005     R0003     0.0211996894
    C0005     R0004     -2.23362E-06
    C0005     R0005     0.1060081263
    C0005     R0006     1.359654E-09
    C0005     R0007     2.205
    C0005     R0008     1.359654E-09
    C0005     R0009     2.205
    C0006     R0001     1
    C0006     R0002     1.489135E-06
    C0006     R0003     0.0211996894
    C0006     R0004     -2.23362E-06
    C0006     R0005     0.1060081263
    C0006     R0006     1.359654E-09
    C0006     R0007     2.205
    C0006     R0008     1.359654E-09
    C0006     R0009     2.205
    C0007     R0001     1
    C0007     R0002     1.489135E-06
    C0007     R0003     0.0211996894
    C0007     R0004     -2.23362E-06
    C0007     R0005     0.1060081263
    C0007     R0006     1.359654E-09
    C0007     R0007     2.205
    C0007     R0008     1.359654E-09
    C0007     R0009     2.205
    C0008     R0001     1
    C0008     R0002     1.489135E-06
    C0008     R0003     0.0211996894
    C0008     R0004     -2.23362E-06
    C0008     R0005     0.1060081263
    C0008     R0006     1.359654E-09
    C0008     R0007     2.205
    C0008     R0008     1.359654E-09
    C0008     R0009     2.205
    C0009     R0001     1
    C0009     R0002     1.489135E-06
    C0009     R0003     0.0211996894
    C0009     R0004     -2.23362E-06
    C0009     R0005     0.1060081263
    C0009     R0006     1.359654E-09
    C0009     R0007     2.205
    C0009     R0008     1.359654E-09
    C0009     R0009     2.205
    C0010     R0001     1
    C0010     R0002     1.489135E-06
    C0010     R0003     0.0211996894
    C0010     R0004     -2.23362E-06
    C0010     R0005     0.1060081263
    C0010     R0006     1.359654E-09
    C0010     R0007     2.205
    C0010     R0008     1.359654E-09
    C0010     R0009     2.205
    C0011     R0001     1
    C0011     R0002     1.489135E-06
    C0011     R0003     0.0211996894
    C0011     R0004     -2.23362E-06
    C0011     R0005     0.1060081263
    C0011     R0006     1.359654E-09
    C0011     R0007     2.205
    C0011     R0008     1.359654E-09
    C0011     R0009     2.205
    C0012     R0001     1
    C0012     R0010     1
    C0013     R0002     1
    C0013     R0010     1
    C0014     R0003     1
    C0014     R0010     1
    C0015     R0002     -1
    C0015     R0010     1
    C0016     R0003     -1
    C0016     R0010     1
    C0017     R0004     1
    C0017     R0010     1
    C0018     R0005     1
    C0018     R0010     1
    C0019     R0004     -1
    C0019     R0010     1
    C0020     R0005     -1
    C0020     R0010     1
    C0021     R0006     1
    C0021     R0010     1
    C0022     R0007     1
    C0022     R0010     1
    C0023     R0008     -1
    C0023     R0010     1
    C0024     R0009     -1
    C0024     R0010     1
RHS
    B         R0001     1
    B         R0003     -0.035
    B         R0005     0.035
    B         R0006     0.9025
    B         R0007     0.9025
    B         R0008     1.1025
    B         R0009     1.1025
BOUNDS
 LO BOUND     C0001     -0.1
 UP BOUND     C0001     0.1
 LO BOUND     C0002     -0.1
 UP BOUND     C0002     0.1
ENDATA
