master.nl
g9 0 1 0 9 20141020 0 4 0 4	# problem master
 24 9 1 0 5	# vars, constraints, objectives, ranges, eqns
 0 0	# nonlinear constraints, objectives
 0 0	# network constraints: nonlinear, linear
 0 0 0	# nonlinear vars in constraints, objectives, both
 0 0 0 1	# linear network variables; functions; arith, flags
 0 0 0 0 0	# discrete variables: binary, integer, nonlinear (b,c,o)
 96 13	# nonzeros in Jacobian, gradients
 0 0	# max name lengths: constraints, variables
 0 0 0 0 0	# common exprs: b,c,o,c1,o1
S0 23 sstatus
0 1
1 1
2 1
3 3
4 3
5 3
6 3
7 3
8 3
9 3
11 1
12 3
13 3
14 3
15 1
16 3
17 1
18 3
19 3
20 3
21 1
22 3
23 3
S1 9 sstatus
0 5
1 5
2 5
3 5
4 5
5 1
6 3
7 4
8 1
C0
n0
C1
n0
C2
n0
C3
n0
C4
n0
C5
n0
C6
n0
C7
n0
C8
n0
O0 0
n0
d9
0 1
1 0
2 -1
3 0
4 1
5 0
6 1
7 -0.9273117014043024
8 0
x23
0 0.016495063317698545
1 0.05054893195096108
2 1
3 0
4 0
5 0
6 0
7 0
8 0
9 0
11 0
12 0
13 0
14 0
15 0.02876264783055643
16 0
17 0.03426037620968621
18 0
19 0
20 0
21 0.8871158251615139
22 0
23 0
r
4 1
4 0
4 -0.035
4 0
4 0.035
2 0.9025
2 0.9025
1 1.1025
1 1.1025
b
0 -0.1 0.1
0 -0.1 0.1
2 0
2 0
2 0
2 0
2 0
2 0
2 0
2 0
2 0
2 0
2 0
2 0
2 0
2 0
2 0
2 0
2 0
2 0
2 0
2 0
2 0
2 0
k23
1
2
11
20
29
38
47
56
65
74
83
84
85
86
87
88
89
90
91
92
93
94
95
J0 10
2 1
3 1
4 1
5 1
6 1
7 1
8 1
9 1
10 1
11 1
J1 12
0 -1
2 1.4891348401627381e-06
3 1.4891348401627381e-06
4 1.4891348401627381e-06
5 1.4891348401627381e-06
6 1.4891348401627381e-06
7 1.4891348401627381e-06
8 1.4891348401627381e-06
9 1.4891348401627381e-06
10 1.4891348401627381e-06
12 1
14 -1
J2 11
2 0.021199689394273236
3 0.021199689394273236
4 0.021199689394273236
5 0.021199689394273236
6 0.021199689394273236
7 0.021199689394273236
8 0.021199689394273236
9 0.021199689394273236
10 0.021199689394273236
13 1
15 -1
J3 12
1 -1
2 -2.2336172818462782e-06
3 -2.2336172818462782e-06
4 -2.2336172818462782e-06
5 -2.2336172818462782e-06
6 -2.2336172818462782e-06
7 -2.2336172818462782e-06
8 -2.2336172818462782e-06
9 -2.2336172818462782e-06
10 -2.2336172818462782e-06
16 1
18 -1
J4 11
2 0.10600812626284885
3 0.10600812626284885
4 0.10600812626284885
5 0.10600812626284885
6 0.10600812626284885
7 0.10600812626284885
8 0.10600812626284885
9 0.10600812626284885
10 0.10600812626284885
17 1
19 -1
J5 10
2 1.3596543652614067e-09
3 1.3596543652614067e-09
4 1.3596543652614067e-09
5 1.3596543652614067e-09
6 1.3596543652614067e-09
7 1.3596543652614067e-09
8 1.3596543652614067e-09
9 1.3596543652614067e-09
10 1.3596543652614067e-09
20 1
J6 10
2 2.205
3 2.205
4 2.205
5 2.205
6 2.205
7 2.205
8 2.205
9 2.205
10 2.205
21 1
J7 10
2 1.3596543652614067e-09
3 1.3596543652614067e-09
4 1.3596543652614067e-09
5 1.3596543652614067e-09
6 1.3596543652614067e-09
7 1.3596543652614067e-09
8 1.3596543652614067e-09
9 1.3596543652614067e-09
10 1.3596543652614067e-09
22 -1
J8 10
2 2.205
3 2.205
4 2.205
5 2.205
6 2.205
7 2.205
8 2.205
9 2.205
10 2.205
23 -1
G0 13
11 1
12 1
13 1
14 1
15 1
16 1
17 1
18 1
19 1
20 1
21 1
22 1
23 1
