master.sol
CPLEX 12.6.0.0: optimal solution; objective 1.466103907
6 dual simplex iterations (1 in phase I)

Options
9
0
1
0
9
20141020
0
4
0
4
9
9
24
24
1
0
-1
0
-1
1
0
0
-0.3958241205000146
7.445674200813691e-07
-1.1168086409231391e-06
0.5
0
0
0
0
0
0
0
0
0.5
0
0
0
0.04559984469713662
0
0
0
0.01800406313142442
0.9024999993201728
0
0
0
objno 0 0
suffix 0 24 8 0 0
sstatus
0 1
1 1
2 1
3 3
4 3
5 3
6 3
7 3
8 3
9 3
10 3
11 1
12 3
13 3
14 3
15 1
16 3
17 3
18 3
19 1
20 1
21 3
22 3
23 3
suffix 1 9 8 0 0
sstatus
0 5
1 5
2 5
3 5
4 5
5 3
6 1
7 1
8 4
